
 102   30
  10   10   10   10   10   10   10   10   10   10   10   10   10   10   10   10   10   10   10   10   10   10   10   10   10   10   10   10   10   10

   0   0   0   0   0   0   0   0   0   0   0   0   0   0   0   0   0   0   0   0   0   0   0   0   0   0   0   0   0   0   0  34 2 3 4 5 6 7 8 9 10 11 12 13 14 15 16 17 18 19 20 21 22 23 24 26 27 28 29 30 31 35 37 39 48 50 
  10   0   0   3   0   0   0   0   0   0   0   0   0   1   0   0   0   0   0   0   0   1   0   2   0   2   0   0   0   0   0  13 100 69 66 64 57 56 52 51 47 44 43 41 32 
   8   0   0   0   0   0   0   0   5   0   0   0   0   0   0   0   0   0   0   0   0   0   0   0   0   0   0   0   0   2   0  21 100 99 98 97 96 92 75 73 69 68 66 65 64 63 62 60 59 57 56 53 38 
   3   0   0   0   1   0   0   0   0   0   0   0   0   0   0   0   0   0   0   0   0   0   1   0   0   2   0   0   0   0   0  13 101 100 99 94 69 62 60 56 55 54 49 36 32 
   7   3   4   0   0   0   0   0   0   0   0   0   0   0   0   0   0   0   0   0   0   0   0   0   0   0   0   0   0   0   0  12 101 97 96 69 63 60 58 49 47 46 41 38 
   6   0   0   0   7   0   0   0   0   0   0   0   0   0   1   0   0   0   0   0   0   0   0   0   0   0   0   0   0   0   0  10 101 75 58 57 56 47 45 44 43 32 
   1   0   0   0   0   0   0   0   0   0   0   0   1   0   0   1   0   0   0   1   0   0   0   0   0   0   0   0   2   6   0  16 100 99 97 96 94 74 68 67 65 62 59 55 54 53 49 43 
   2   3   0   0   0   0   1   0   0   0   0   0   0   0   0   0   4   0   0   0   0   0   0   0   0   0   0   0   0   0   1  11 100 96 69 67 66 61 58 45 44 43 42 
   6   6   0   0   0   0   0   0   0   2   0   0   0   0   0   0   0   0   1   0   0   0   0   0   0   0   0   1   0   0   0  14 100 99 98 95 73 69 67 60 56 54 53 47 44 40 
   1   0   0   0   0   0   5   0   0   0   0   0   0   0   0   0   0   0   0   0   0   0   0   0   2   0   3   0   0   0   0  13 101 97 96 74 73 69 68 67 66 58 54 45 43 
   3   0   0   0   0   4   8   0   0   0   0   0   0   0   0   7   0   0   6   0   0   0   0   0   6   0   0   0   0   0   0   8 69 66 64 52 51 45 41 33 
   7   8   0   0   0   0   0   0   0   0   0   0   0   0   0   0   0   0   0   0   0   0   0   4   0   0   0   0   0   0   0  12 99 94 93 91 90 68 67 65 62 55 49 34 
   4   0   4   0   0   0   0   0   0   0   0   0   5   5   0   0   0   0   0   0   0  10   0   0   0   0   0   0   0   0   0  12 100 99 98 94 74 73 68 66 59 55 43 32 
   4   0   5   0   1   0   0   0   0  10   2   0   8   0   0   0   0   0   0   0   0   0   5   0   0   0   0   0   0   0   0   9 99 74 73 68 59 56 54 53 25 
   8   0  10   0   6   0   0   0   0   0   0   0   0   0   0   0   0   0   0   0   0   0   0   0   0   0   0  10   0   4   0  19 100 99 98 97 95 94 93 87 85 73 69 68 67 66 61 57 55 54 53 
   7   0   0   0   0   3   8   0   4   0   0   1   0   0   0   0   2   0   0   0   0   0   0   0   0   0   6   0   0   0   0   8 100 99 84 74 61 52 43 33 
   7   0   0   0   0   0   0   0   0   0   0   9   0   0   0   0   0   0   0   0   4   0   0   0   0   8   0   0   0   0   0  15 100 98 96 95 93 92 91 90 89 81 74 67 66 52 42 
  10   0   0   0   0   0   0   0   0   0   0   0   0   0   0   4   0   1   0   0   4   0   0   0   0   0   0   0   0   6   0  13 94 88 87 74 68 67 63 62 60 56 54 53 49 
   6   0   0   0   0   0   0   0   0   0   0   0   0   6   8   4   0   0   0   0   0   0   0   5   4   0   0   0   0   0   0  15 99 97 96 94 92 90 88 87 86 74 71 63 62 56 49 
   9   0   0   0   0   0   2   0   0   0   0   0   0   6   0   0   0   4   0   0   0   0   9   0   0   0   0   0   0   0   0  12 100 99 98 92 90 82 80 66 63 62 56 38 
   5   0   0   0   0   0   0   1   0   0   0   0   0   0   0   0   0   0   0   0   0   0   0   0   0   6   6   0   0   0   0  17 99 97 96 94 91 87 81 74 68 67 66 64 63 62 55 54 53 
   6   6   6   0   0   6   0   0   0   0   4   0   5   0   7   0   0   0   0   7   0   0   0   0   0   0   8   0  10   0   0  19 97 96 95 92 91 90 87 86 83 80 73 71 68 67 66 63 62 59 55 
   9   0   0   0   7   0   0   6   0   0   0   0   0   0   0   0   0   0   0   0   0   0   0   0   0   0   0   0   0   0   0  10 99 96 90 82 70 63 60 57 56 38 
   1   0   0   0   0   0   0   0   0   0   0   7   8   0   0   0   0   0   0   0   0   0   0   0   0   9   0   0   0   0   0  13 99 97 96 93 91 90 88 87 85 81 78 54 49 
   5   0   0   0   8   0   0   0   0   7   0   0   0   0   0   0   0   0   0   0   0   0   0   0   0   0   0   0   0   0   0  12 98 96 92 86 83 82 75 71 67 66 55 44 
   7   0   0  10   0   0   0   0   0   3   0   0   8   0   0   0   0   0   0   8   0   7   0   0   0   0   0   0   7   0   0  11 92 91 89 86 75 73 68 67 63 55 41 
   1   0   0   0   0   0   0   0   0   8   0   0   0   0   0   0   0   0   0   0   0   0   0   0   0   4   0   0   0   0   0   9 87 86 80 70 69 63 58 57 55 
   6   0   0   0   0   0   0   0   0   0   0   0   0   0   0   0   0   0   7   0   0   0   0   0   0   0   0   7   4   0   0  20 98 97 95 93 91 90 89 88 85 84 83 82 81 80 79 78 75 73 71 66 
   2   0   0   0   0   0   0   0   0   0   4   0   0   0   0   0   0   0   0   0   0   0   0   0   0   0   0   0   0   0   0  15 99 93 92 91 89 87 86 85 83 82 73 71 62 60 55 
   3   7   0   0   0   0   0   0   0   0   7   0   0   0   0   0   0   0   0   0   0   0   0   0   0   0   6   6   0   0   7  13 90 88 85 84 83 74 72 71 70 67 61 60 58 
   8   0   0   0   0   0   0   0   4   0  10   0   0   0   0   0   0   0   9   7   0   0   0   9   0   0   0   6   0   0   0  15 96 91 90 88 87 86 85 84 83 80 78 73 70 68 57 
   1   0   0   0   0   0   0   0   0   4   0   0   0   0   0   0   6   8   0   0   0   0   0  10   0  10   0   0   7   0   0  13 97 96 93 92 91 89 82 81 72 70 67 63 53 
   2   0   0   0   6   0   0   0   0   4   0   0   0   9   0   0   5   0   0   0   0   4   0   0   0   0   0   0   0   0   4  17 98 96 94 93 92 90 89 88 86 85 82 81 80 79 75 72 67 
   7   0   0   5   0   0   0   0   5   6   0   0   0   0   0   0  10   0   0   0   0   0   0   0   0   0   0   0   0   0   0  10 97 96 86 83 82 81 75 66 63 54 
   5   0   0   0   0   0   0   0   0   0   0   0   0   0   0   0   0   0   0   8   0   0   0   0   0   0   0   0   0   0   0  13 100 99 95 94 92 91 88 87 84 70 68 64 63 
   4   0   0   0   0   0   0   0   0   0   0   5   0   0   0   0   0   0   0   8   0   0   0   0   0   0   0   0   0   7   7  10 96 95 88 87 81 70 68 67 63 53 
   8   0   0   0   0   0   0   0   5   0   0   0   0   0   0   0   0   0   0   0   0   0   0   0   0   0   0   0   0   0   0  13 98 95 94 91 89 86 85 83 80 74 72 67 62 
   2   0   0   5   0   0   0   0   0   0   0   0   0   0   0   8   0   0   0   9   0   0   0   0   0   9   0   0   0   0   0  12 95 94 89 87 86 85 83 81 74 71 67 55 
   8   0   0   0   0   0   0   0   0   0   0   0   0   0   0   5   0   0   0   2   0   5   0   0   9   0   0   0   0   0   0  13 97 91 90 88 87 86 84 83 81 80 74 73 67 
   2   0   0   0   0   0   0   0   0   0   0   0   0   0   0   0   0   0   0   0   0   0   0   0   0   0   0   0   5   0   0  10 97 96 92 89 86 85 83 80 68 55 
   8   0   0   0   0   0  10   0   0   0   6   0   0   0   0   0   0   0   0   0   0   0   0   0   0   0   0   6   0   0   0  15 99 95 94 90 87 85 84 83 82 81 80 79 78 77 72 
  10   0  10   0   0   0   0   0   0   0   0   0   5   0   0   5   0   0   3   6   0   0   0   0   0   0   0   0   0   5   0  12 99 97 94 88 86 84 80 79 73 71 70 68 
   7   3   0   7   0   0   0   0   0   0   0   0   0   0   0   0   0   0   0   6   0   9   0   0   0   4   0   0   0   0   0   9 91 90 89 87 86 79 71 63 60 
   3   0   0   0   0   0   0   0   0   0   0   0   0   0   0   8   3   0   0   0   0   0   0   0   0   0   0   0   0   0   0   9 93 90 89 87 81 80 79 63 62 
   1   0   0   0   0   0   0   0   7   0   0   0   0   0   0   0   0   8   0   0   0   0   0   0   0   0   0   0  10   0   0   9 98 89 85 82 81 80 72 70 55 
   1   0   0   0   0   8   0   0   0   0   0   0   0   0   9   0   0   3   0   0   0   0   0   0   8   5   0   0   0   0   0   9 98 95 88 82 80 79 71 70 56 
  10   0   0   0   0   0   0   0   0   0   0   0   0   0   0   0   3   0   0   0   0   0   7   0   5   0   0   0   7   0   0  11 94 93 92 91 88 84 83 81 72 70 68 
   9   0   0   0   0   0   0   0   0   0   0   4   0   0   0   0   0   8   8   0   0   0   0   0   7   0   0   0   0   0   0  11 96 92 90 89 87 86 85 82 80 76 67 
  10   0   0   0   3   0   0   9   0   0   0   0   0   0   0   0   0   0   0   0   0   0   0   6   0   0   0   0   0   0   0   9 98 95 89 84 83 82 80 73 66 
   2   0   0   0   0   8   0   0   0   0   0   4   0   0   0   0   0   0   0   0   0   0   0   0   0   0   0   0   0   0   0   5 94 87 81 78 54 
   3   0   0   0   0   0   0   9   0   0   0   0   0   0   0   0   0   0   0   0   0   0   0   7   7   6  10   0   0   0   0   9 92 90 89 86 80 79 77 72 68 
  10   0   4   2   0   0   0   0   0   6   0   0  10   0   0   0   0   0   0   0   0   5   0   5   0   0   0   0   0   0   8   7 97 87 86 83 73 70 63 
   8   0   0   0   0   0   0   0   0   0   5   7   0   0   7   0   0   0   0   0   0   0   0   0   0   0   0   0   0   0   4   8 90 86 83 80 79 78 77 76 
   6   0   0   0   0  10   0   0   9   0   0   0   0   4   0   6   0   0   0   3   8   0   0   0   0   0   5   0   0   0   0   5 92 84 79 71 70 
   3   0   0   0   0   5   0   0   0  10   0   0   0   0   0   0   0   0   0   0   7   0   0   0   0   7   0   0   0   0   0   6 88 84 79 78 77 76 
   8   0   0   6   0   0   0   0  10   8   0   0   0   0   0   0   0   0   0   0   0   0   0   0   0   0   6   9   0   0   7   6 93 91 81 78 77 76 
  10   0   0   0   0   0   0   0   0   0   0   0   0   0   0   0   0   0   0   0   9   0   0   0   0   0   0   0   0   0   0   4 89 81 74 71 
   4   0   0   0   0   0   0   0   0   0   8   0   0   0   4   0   0   0   0   0   0   0   0   0  10   0   0   3   0   0   0   5 95 94 93 82 81 
  10   0   0   0   7   0   0   0   0   5   0   0   0   0   0   0   0   0   0   0   4   0   0   0   5   0   0   0   8   0   0   4 93 81 78 70 
   4   0   0   8   0   0   0   0   0   0   0   0   0   0   0   0   0   0   0   0   0   0   0   0   0   0   0   0   0   0   0   4 81 80 77 76 
   8   0   0   0   0   0   0   8   0   0   0   0   0   0   0   0   0   0   6   0   0   0   0   0   0   0   0   0   0   0   0   4 92 80 79 77 
   7   0   0   0   0   0   0   0   0   0   0   0   0   0   0   0   0   5   0   8   0   0   0   0   0   0   0   0   0   0   0   3 84 76 70 
   1   0   0   0   0   0   0   0   5   0   0   0   0   7   0   0   0   0   0   0   0   0   0   0   0   0   0   0   9   0   0   3 85 78 76 
   6   0   0   0   0   0   0   0   0   0   0   0   0   0   0   5   0   0   0   0   7   0   0   0   0   0   5   4   3  10   0   3 86 83 77 
   3   0   0   0   0   0   0   0   0   7   0   8   0   0   0   0   0   0   0   0   0   7   0   0   0   0   0   0   0   0   0   3 89 83 82 
   4  10   0   0   0   0   0   0   0   0   0   0   0   0   0   0   0   0   8   0   0   0   0   0   0   0   0   0   5   0   0   2 77 72 
   5   0   9   0   0   0   0   0   0   0   0   3   0   0   0   0   0   7   0   0   0   0   0   0   0   0   0   8   0   0   0   2 78 77 
   4   0   5   6  10   0   7   0   5   0   0   0   0   0   0   0   6   0   6   0   0   0   0   0   0   0   0   0   0   0   0   2 82 76 
   3  10   6  10   5   0   0   0   0   0  10   0   0   7   0   0   0   0   0   4   0   3   0   0   0   0   0   0   0   7   9   2 91 83 
   5   0   0   0   4   0   0   0   0   0   4   0   0   0   0   7   0   0   0   0   0   0   4   0   0   0   0   0   0   6   0   1 77 
   7   0   0   0   0   0   0   0   0   0   0   0   0   0   0   0   0   0   0   0   0   0   0   0   0   0   3   0   0   0   0   1 76 
   5   0   0   0   6   0   0   0   0   0   0   0   0   0   0   8   0   0   0   0   0   0   0   5   0   9   6   0   0   0   0   1 76 
   4   0   5   0   0   0   8   0   0   0   0   0   0   7   0   0  10   0   0   0   0   9   8   0   0   0   6   6   0  10   7   1 76 
   1   0   0   0   0   0   0   0   0   0   0   0   0   0   0   0   7   0   6   0   0   0   8   0   0   0   0   0   0   0   0   1 79 
   5   0   6   0   0   0   0   0   0   0   0   0   7   0   0   0   0   0   0   0   0   0   0   0   0   0   0   0   0   8   0   1 87 
  10   0   0   0   0   6   0   0   0   0   0   0   0   0   0   5   7   0   0   0   0   0   0   0   0   6   0   0   0   0   0   1 102
   8   6   0   0   0   0   0   0   0   0   0   6   0   0   0   0   0   0   0   0   0   0   0   0   0   0   0   0   5   0   0   1 102
   3   0   0   0   0   0   0   0   0   0   0   0   0   0   0   0  10   0   0   0   0   0   0   0   0   0   0   0   3   0   0   1 102
  10   5   0   0   9   0   0   0   6   0   0   0   5   0   0   6   0   0   0   0   9   0   0   0   0   0   6   0   0   0   0   1 102
   5   0   0   0   0   0   0   0   0   0   7   0   0   0   0   0   0   0   0   0   0   0   0   8   0   0   0   0   0   5   0   1 102
   5   0   0   0   0   0   5   8   0   0   0   0   0   0   6   0   0   0   0   0   6   0   0   0   0   0   0   0   0   0   5   1 102
   6   0   0   0   0   0   0   0   0   0   0   6   0   0   0   0   0   0   0   0   0   0   0   0   0   0   0   0   0   0   0   1 102
   3   0   0   0   0   0   0   0   0   0   6   0   0   0   0   0   3   8   0   0   0   0   0   0   0   4   0   0   0   0   0   1 102
   3   0   8   0   0   0   0   0   0   0   0   0   0   0   0   9   0   0   6   0   0   0   0   0   5   0   0   0   5   0   0   1 102
   4   0   0   0   6   0   0   0   0   0   0   0   0   0   0   0   0   0   9   0   0   0   0   0   0   0   0   0   0   0   0   1 102
   9   0   0   0   0   0   0   0   0   0   0   0   6   0   7   0   0   0   0   0   0   0   0   0   0   0   0   0   0   3   0   1 102
   8   5   0   0   0   0   0   0   0   0   0   0   6   0   0   0   0   0   0   0   0   0   0   0   0   0   8   0   0   5   0   1 102
   9   0   0   4   6   0   0   0   0   0   0   0   0   0   0   8   0   7   0   0   0   0   0   0   0   0   0   0   0   0   7   1 102
   4   0   0   0   0   0   0   0   0   0   0   0   0   0   0   0   0   0   2   0   3   0   0   0   0   0   0   0   0   0   0   1 102
   5   0   0   0  10   0   0   4   0   0   0   0   0   0   0   0   0   0   0   0   0   0   0   0   9   0   0   0   0   0   0   1 102
   9   0   0   0   0   0   0   0   0   0   0   0   0   8   0   0   6   6   0   8   5   6   0   0   5   7   0   0   0   0   0   1 102
   6   0   0   0   0   0   0   0   0   0   0   0   6   0   0   0   0   0   0   0   0   0   0   0   5   0   0   0   5   0   0   1 102
   4   0   2   0   0   0   6   3   0   0   0   0   0   0   0   0   0   0  10   0   0   0   0   0   0   0   0   0   0   0   0   1 102
   6   0   0   0   0   0   0   0   0   0   0   0   0   0   5   0   0   0   0   4   0   0   0   0   0   0   6   0   0   0   0   1 102
   5   0   0   0   0   0   0   0   0   7   0   0   0   0   0   0   0   0   4   0   0   6   0   0   0   0   0   0   7   0   0   1 102
   2   0   0   0   0   0   0   0   0   0   0   0   0   0   0   0   0   7   5   8   2   0   0   5   0   4   0   0   0   0   0   1 102
  10   0   0   0   0   4   0   6   0   0   5   8   4   0   0   0   8   0   6   5   0   0   0   0   3   0   0   0   0   0   0   1 102
   9   0   0   0   0   0   0   0   0   0   0   0   0   0   0   0   0   0   0   0   0   0   0   0   0   0   0   0   0   0   0   1 102
   8   0   0   0   0   0   0   0   7   0   0   0   0   0   0   0   0   0   0   0   0   0   0   0   0   0   0   0   0   0   0   1 102
   1   0   0   0   0   0   0   0   0   0   0   0   0   0   0   0   0   0   0   0   0   0   0   0   4   0   0   0   0   0   0   1 102
   5   0   0   0   0   0   0   0   0   3   0  10   0   0   0   0   0   0   0   0  10   0   0   0   8   0   0   0   0   0   0   1 102
   0   0   0   0   0   0   0   0   0   0   0   0   0   0   0   0   0   0   0   0   0   0   0   0   0   0   0   0   0   0   0   0 
